NAME: random-37-8762
TYPE: TSP
COMMENT: size=37 seed=8762
DIMENSION: 76
EDGE_WEIGHT_TYPE: EUC_2D
NODE_COORD_SECTION
+0 934 394
-0 934 394
+1 464 318
-1 964 680
+2 29 975
-2 360 233
+3 744 610
-3 298 559
+4 814 149
-4 807 849
+5 160 779
-5 738 290
+6 862 394
-6 603 173
+7 124 749
-7 442 746
+8 691 949
-8 717 221
+9 677 869
-9 297 555
+10 746 41
-10 309 832
+11 494 198
-11 238 445
+12 145 553
-12 510 891
+13 795 352
-13 907 54
+14 974 697
-14 858 176
+15 42 752
-15 957 923
+16 694 770
-16 317 531
+17 48 984
-17 687 367
+18 601 24
-18 403 625
+19 138 46
-19 66 822
+20 939 222
-20 365 58
+21 225 738
-21 860 516
+22 883 181
-22 435 825
+23 285 525
-23 211 728
+24 922 463
-24 483 295
+25 333 461
-25 850 322
+26 532 620
-26 464 531
+27 774 399
-27 668 290
+28 917 162
-28 192 157
+29 51 30
-29 102 70
+30 461 399
-30 806 486
+31 945 923
-31 707 866
+32 77 90
-32 967 819
+33 385 281
-33 594 743
+34 24 620
-34 134 586
+35 590 185
-35 172 628
+36 487 73
-36 106 395
+37 47 412
-37 609 289
PRECEDENCE_SECTION
+0 -0
+1 -1
+2 -2
+3 -3
+4 -4
+5 -5
+6 -6
+7 -7
+8 -8
+9 -9
+10 -10
+11 -11
+12 -12
+13 -13
+14 -14
+15 -15
+16 -16
+17 -17
+18 -18
+19 -19
+20 -20
+21 -21
+22 -22
+23 -23
+24 -24
+25 -25
+26 -26
+27 -27
+28 -28
+29 -29
+30 -30
+31 -31
+32 -32
+33 -33
+34 -34
+35 -35
+36 -36
+37 -37
EOF
